GLPSOL: GLPK LP/MIP Solver, v4.55
Parameter(s) specified in the command line:
 -m tmp.mod
Reading model section from tmp.mod...
Reading data section from tmp.mod...
6603 lines were read
Generating obj...
Generating kirhoff...
Generating init_charge...
Generating batt_size...
Model has been successfully generated
GLPK Simplex Optimizer, v4.55
7964 rows, 12582 columns, 27432 non-zeros
Preprocessing...
6408 rows, 12386 columns, 26986 non-zeros
Scaling...
 A: min|aij| =  1.000e+00  max|aij| =  1.000e+00  ratio =  1.000e+00
Problem data seem to be well scaled
Constructing initial basis...
Size of triangular part is 5430
      0: obj =   0.000000000e+00  infeas =  5.590e+03 (978)
    500: obj =   0.000000000e+00  infeas =  4.699e+03 (813)
   1000: obj =   2.900000000e+01  infeas =  2.989e+03 (706)
   1500: obj =   1.500000000e+02  infeas =  1.524e+03 (638)
   2000: obj =   2.845000000e+02  infeas =  5.175e+02 (561)
   2500: obj =   4.535000000e+02  infeas =  1.195e+02 (541)
*  2618: obj =   4.965000000e+02  infeas =  0.000e+00 (535)
*  3000: obj =   2.730000000e+02  infeas =  0.000e+00 (528)
*  3179: obj =   2.190000000e+02  infeas =  0.000e+00 (521)
OPTIMAL LP SOLUTION FOUND
Time used:   1.4 secs
Memory used: 24.5 Mb (25718426 bytes)
#OUTPUT:
219
0 -53 0 -8 -42 0 0 -31 -44 0 0 -10 -5 2 0 -5 0 0 0 -10 0 0 0 0 -2 0 2 0 -10 -23 0 0 0 -10 -6 0 0 5 0 -5 -2 0 -1 0 4 0 0 0 0 0 5 0 0 0 0 3 0 0 0 0 0 0 0 -1 0 3 0 0 0 0 0 -11 -1 0 0 0 0 0 0 0 0 5 0 5 0 0 0 0 0 0 0 0 2 0 0 0 0 0 0 0 0 0 0 0 0 0 0 0 4 0 0 0 0 0 0 0 0 0 0 0 -6 0 -23 0 0 0 0 0 0 0 0 0 -31 0 0 0 0 0 0 0 0 0 0 0 0 0 0 0 2 4 0 0 0 0 0 0 0 0 0 0 0 0 5 0 0 0 0 0 0 0 0 0 0 0 -2 0 0 0 0 0 0 0 0 0 0 0 0 0 0 0 0 0 0 0 0 -1 0 -23 0 0 0 0 0 0 0 0 0 0 0 0 0 0 0 0 0 0 4 0 -6 0 0 0 0 0 0 0 -4 0 0 0 0 0 0 0 0 0 0 0 0 0 0 -5 0 0 0 0 0 0 0 0 0 0 0 0 0 0 0 0 0 0 0 0 0 0 0 0 0 0 0 -15 0 0 0 0 0 0 0 0 0 0 4 0 0 0 0 0 0 0 0 0 0 0 0 0 0 0 0 0 0 0 0 0 0 0 0 1 5 0 0 -15 0 -1 0 0 0 0 0 0 0 0 -1 0 0 0 0 0 0 0 0 0 0 0 0 0 0 0 0 0 0 0 0 0 0 0 0 -1 0 5 0 0 0 0 0 0 0 0 0 0 0 0 0 3 0 0 0 4 0 0 0 -11 0 0 0 0 0 0 -2 0 0 0 0 -5 0 0 0 0 0 -4 6 0 0 5 0 0 0 0 0 5 0 0 0 0 0 2 -2 0 0 0 0 -4 0 0 0 0 0 0 0 15 0 0 1 0 0 0 0 0 0 0 0 0 1 -5 0 0 0 0 -3 0 0 0 0 0 0 0 0 0 0 0 0 0 0 0 0 0 0 0 0 0 0 0 0 0 0 0 0 0 0 0 0 0 0 0 0 0 0 0 0 0 0 0 0 0 0 0 0 0 0 0 0 0 0 0 0 0 0 0 0 0 0 0 0 
-4 -49 -11 -29 -7 0 -1 11 -40 -3 -2 0 -26 -7 0 -1 -1 0 0 0 -1 0 0 0 0 0 0 0 -10 -36 -7 0 10 -7 0 0 0 2 0 3 0 0 0 0 0 0 0 -2 0 0 0 -1 0 0 0 0 0 0 0 0 0 0 0 1 0 0 0 -3 0 0 0 -2 -1 -2 4 -5 10 0 -36 0 0 0 0 2 0 0 0 -3 0 0 0 0 0 0 0 0 0 0 -7 0 0 0 0 0 0 -7 0 0 0 1 5 5 -9 0 0 0 0 0 0 0 0 0 0 0 0 0 0 0 0 3 -1 0 17 0 0 -1 0 0 0 0 0 0 0 3 0 0 0 0 0 0 0 0 0 0 2 0 0 0 0 -3 0 0 2 0 0 0 0 0 0 0 0 0 0 0 0 0 0 0 0 0 0 0 0 0 0 0 0 0 0 0 0 0 0 0 0 34 0 0 0 0 0 0 0 0 0 0 0 0 0 0 0 0 0 0 0 0 1 0 0 0 -4 0 0 0 0 0 0 0 0 0 0 0 0 0 0 0 0 0 0 0 0 0 0 0 0 -3 0 0 0 0 0 0 0 0 0 0 0 0 0 0 0 0 0 0 0 0 0 0 0 -18 0 0 0 0 0 0 0 0 5 0 0 0 0 0 0 0 0 0 0 0 0 0 0 0 0 0 0 0 0 3 0 0 12 0 0 0 0 0 0 -18 0 -1 0 0 1 0 0 0 0 0 -1 0 0 0 0 0 0 0 0 0 0 0 0 0 0 0 0 0 0 0 0 0 0 0 0 0 0 0 0 0 0 0 0 0 0 0 0 0 0 0 0 0 0 12 0 0 0 0 0 -4 -4 7 -4 -1 0 10 0 0 -2 0 3 -2 0 0 0 0 0 -1 0 4 0 0 0 0 0 0 0 0 3 -1 1 0 0 0 0 0 0 0 -5 0 0 0 0 0 0 0 1 18 0 -1 1 -3 0 3 0 0 0 0 0 0 0 0 0 0 0 0 0 -12 0 0 0 0 0 0 0 0 0 0 0 0 0 0 0 0 0 0 0 0 0 0 0 0 0 0 0 0 0 0 0 0 0 0 0 0 0 0 0 0 0 0 0 0 0 0 0 0 0 0 0 0 0 0 0 0 0 0 0 0 0 0 0 
-16 -95 -44 -19 -23 -15 -1 -23 -62 0 0 -51 -21 -14 -1 0 0 0 2 -51 0 0 0 0 0 0 2 0 -10 0 -7 -1 -10 -10 -6 0 -1 28 -1 0 0 0 0 1 -6 0 0 -2 0 1 0 -1 0 -16 0 1 0 0 0 0 0 1 -1 1 0 1 0 -39 4 0 0 -8 -1 -2 0 -20 -10 0 0 0 0 5 0 28 0 0 0 -4 0 0 0 0 0 0 1 -2 0 0 -7 0 0 0 0 0 0 0 -24 0 -4 0 1 0 3 0 0 -2 0 5 0 0 -7 0 -4 0 0 0 0 -3 0 -1 0 0 -3 0 0 -1 0 0 -1 -36 0 0 0 3 0 0 0 1 0 -4 0 0 0 0 2 0 -31 0 0 0 -1 0 28 0 0 0 0 0 0 0 0 0 0 0 -50 0 0 0 0 0 0 0 0 0 0 0 0 0 0 1 0 0 21 0 0 -8 0 -4 0 0 0 0 2 0 -26 0 0 0 0 -1 0 0 0 0 0 0 -2 0 -10 0 0 0 0 -16 0 0 0 0 0 26 0 0 0 0 0 0 0 0 0 2 0 0 0 0 -1 -3 0 0 0 0 0 0 -36 0 0 2 1 0 0 0 0 0 0 3 0 0 0 0 0 0 0 0 0 0 0 0 0 0 0 0 0 0 0 0 0 0 0 0 0 0 0 0 -1 0 0 0 0 0 0 -1 0 0 0 -1 0 2 5 0 0 0 0 -1 2 0 0 0 0 0 0 0 -1 1 0 0 0 -1 0 0 0 0 0 -1 0 0 0 0 -1 0 0 0 0 0 0 0 0 0 0 5 0 0 0 0 -3 0 0 0 0 1 0 0 0 0 0 0 0 0 0 0 0 -10 0 7 -1 0 0 -10 0 0 -2 0 0 -7 0 -1 0 0 1 1 46 0 16 5 -26 0 0 0 0 0 3 0 0 36 -1 0 0 -3 0 0 0 0 0 -21 21 0 -4 2 -1 0 -2 0 1 -4 0 3 0 1 0 0 1 0 0 -5 0 3 -1 0 0 0 0 0 0 0 0 0 0 0 0 0 0 0 0 0 0 0 0 0 0 0 0 0 0 0 0 0 0 0 0 0 0 0 0 0 0 0 0 0 0 0 0 0 0 0 0 0 0 0 0 0 0 0 0 0 0 0 0 0 0 0 0 0 0 
-4 -58 -42 -20 0 0 0 0 -96 -4 -2 -48 -16 -4 0 -16 0 0 -2 -48 0 0 0 0 0 0 -1 0 -10 -48 0 0 -7 -10 0 0 0 10 0 -16 0 0 0 -1 -4 0 0 0 0 -1 0 0 0 1 0 0 0 0 0 0 0 -6 0 -1 0 0 0 -36 0 0 0 0 -1 0 -4 0 -7 0 0 0 0 0 0 10 0 0 0 0 0 0 0 0 0 0 -6 -4 0 0 0 0 0 0 0 0 0 0 6 0 0 0 1 0 0 0 0 -4 0 -1 0 0 0 0 -48 0 0 0 0 0 0 -16 0 0 0 0 0 0 0 0 0 -35 0 0 0 1 0 0 0 0 0 0 0 0 0 0 0 0 -31 0 0 16 0 0 10 0 0 0 0 0 0 0 0 0 0 0 -8 0 0 0 0 0 0 0 0 0 0 0 0 0 0 0 0 0 10 0 0 -1 0 40 0 0 0 0 0 0 6 0 0 0 0 0 0 0 0 0 0 0 10 0 0 0 4 0 0 1 0 0 0 0 -63 -6 0 0 0 0 0 0 0 0 0 0 0 0 0 0 0 -1 0 0 0 0 0 0 -35 0 0 -2 0 0 0 0 0 0 0 0 0 0 0 0 0 0 0 0 0 0 0 0 0 0 0 0 0 0 0 0 0 0 0 0 0 0 0 0 0 6 0 0 0 0 0 -16 0 0 1 0 0 0 0 0 0 0 0 0 -2 0 0 0 0 0 0 0 0 -3 0 0 0 0 0 0 0 0 0 0 0 0 0 0 0 0 0 0 0 0 0 0 0 0 0 0 0 0 0 0 0 0 0 0 0 0 0 0 0 0 0 1 0 0 0 0 0 0 0 0 -4 3 0 -7 0 0 0 -1 -16 0 0 0 0 0 -6 -4 35 -4 -1 0 6 0 0 0 0 0 1 0 0 35 0 0 0 0 0 0 0 0 0 -16 10 0 0 0 0 0 2 0 0 0 0 3 0 0 0 0 0 0 0 0 0 0 0 0 0 -1 0 0 0 0 0 0 0 0 0 0 0 0 0 0 0 0 0 0 0 0 0 0 0 0 0 0 0 0 0 0 0 0 0 0 0 0 0 0 0 0 0 0 0 0 0 0 0 0 0 0 0 0 0 0 0 0 0 0 0 0 0 0 0 
0 0 0 0 0 0 0 0 0 0 0 0 0 0 0 0 -1 0 0 0 0 0 0 0 0 0 0 0 10 0 0 0 -10 10 0 0 0 0 0 0 0 0 0 0 0 0 0 0 0 0 0 0 0 0 -1 0 0 0 0 0 0 0 0 -1 0 0 0 0 0 0 0 0 -1 0 0 0 -10 0 0 0 0 0 0 0 0 0 0 0 0 0 0 0 0 0 0 0 0 0 0 0 0 0 0 0 0 0 0 0 0 -1 0 0 0 0 0 0 0 0 0 0 0 0 0 0 0 0 0 0 0 0 1 0 3 0 0 0 0 0 0 0 0 0 0 0 0 0 0 0 0 0 0 0 0 0 0 0 0 0 0 0 0 0 0 0 0 0 0 0 0 0 0 0 0 0 0 0 0 0 0 0 0 0 0 0 0 0 0 0 0 0 0 -1 0 0 0 -1 0 0 0 0 0 0 0 0 0 0 0 0 0 0 0 0 0 0 0 0 0 0 0 0 0 0 0 0 0 0 0 0 0 0 0 0 0 0 0 0 0 0 0 0 0 0 -2 0 0 0 0 0 0 0 0 0 0 0 0 0 0 0 0 0 0 0 0 0 0 0 0 0 0 0 0 1 0 0 0 0 0 0 0 0 0 0 0 0 -2 0 0 0 0 0 0 0 0 0 0 0 0 0 0 0 0 0 0 0 0 0 0 0 0 0 0 0 0 0 0 0 0 0 0 0 0 0 0 0 0 0 0 0 0 0 0 0 0 0 0 0 0 0 0 0 0 0 0 0 0 0 0 0 0 0 0 0 0 0 0 0 0 0 0 0 0 0 0 0 0 0 0 0 0 0 0 0 0 0 0 -10 0 0 0 0 0 0 0 0 0 0 0 0 0 0 0 0 0 0 0 0 0 0 0 1 -1 0 0 0 0 0 0 -1 0 0 0 0 0 0 0 0 0 0 0 0 0 0 -2 2 0 0 0 0 0 0 0 0 0 0 0 0 0 0 0 0 0 0 0 0 0 0 0 0 0 0 0 0 0 0 0 0 0 0 0 0 0 0 0 0 0 0 0 0 0 0 0 0 0 0 0 0 0 0 0 0 0 0 0 0 0 0 0 0 0 0 0 0 0 0 0 0 0 0 0 0 0 
-16 -48 -42 -13 -1 -16 0 -1 -34 0 0 -30 0 -9 -2 0 -2 0 0 -30 -5 0 1 0 0 0 2 0 0 -2 0 0 0 0 -4 0 0 0 -2 1 0 0 -5 -1 -8 0 0 0 0 -1 -1 0 0 -16 3 4 0 0 0 0 6 0 0 -1 0 4 0 -39 0 0 0 0 -1 0 0 0 0 0 0 0 0 4 -1 0 0 0 0 0 0 0 0 0 0 0 0 -4 0 6 0 0 0 0 0 0 0 0 -30 0 -4 1 0 1 0 0 0 -4 0 0 0 0 -4 0 -2 0 0 0 0 0 0 0 0 0 0 0 0 0 0 1 -1 -36 0 0 -6 3 1 0 0 2 0 -4 4 0 0 0 0 0 -30 0 0 0 0 0 0 0 0 0 0 0 0 0 0 0 0 0 -50 0 0 0 0 0 0 0 0 0 0 -6 0 0 0 0 0 0 0 0 0 -1 0 -2 0 0 0 0 4 0 52 0 0 0 0 0 0 0 0 0 0 0 -2 0 -10 0 0 0 0 -17 0 0 0 0 0 -52 0 0 0 0 0 0 0 -6 0 4 0 1 -2 0 0 -3 0 0 0 0 0 0 -36 0 0 0 0 0 0 0 0 0 0 0 0 0 0 0 0 0 0 0 0 0 0 0 0 0 1 0 0 0 0 0 -2 0 0 0 0 0 0 0 -3 0 0 0 0 0 0 0 0 0 3 -3 0 2 4 1 0 0 0 0 0 0 0 0 0 0 0 0 0 2 0 0 0 0 0 -1 0 0 0 0 0 0 0 0 -2 0 0 0 0 0 0 -87 0 0 0 4 0 0 0 0 -6 0 0 0 0 1 0 0 0 2 0 3 -1 0 3 0 0 0 -1 0 0 0 0 0 0 -4 0 -1 0 0 0 0 0 0 0 2 46 0 17 4 52 0 6 0 0 -1 3 -1 1 36 0 0 0 0 0 0 -1 0 0 0 0 0 -1 4 -2 0 0 0 0 0 -2 0 1 0 0 0 2 0 0 -4 0 6 -1 0 -2 -3 1 0 0 0 0 0 0 0 0 0 0 0 0 0 0 0 0 0 0 0 0 0 0 0 0 0 0 0 0 0 0 0 0 0 0 0 0 0 0 0 0 0 0 0 0 0 0 0 0 0 0 0 0 0 0 0 0 0 0 0 0 0 0 
-2 -54 -4 -15 -3 -3 -1 -14 -20 -4 0 0 0 0 -2 0 2 -42 0 0 -1 0 -3 0 0 0 -2 -41 0 0 0 -5 0 0 0 0 0 0 0 0 0 0 -5 0 0 0 0 0 0 0 0 -1 0 0 3 0 0 0 0 0 0 0 0 0 0 0 0 0 0 0 0 -11 0 0 -4 -25 0 0 0 0 0 0 0 0 0 0 0 0 0 0 0 0 0 0 0 0 0 0 0 0 0 0 0 0 0 0 0 -50 0 0 -1 0 0 0 -2 0 0 0 0 0 0 0 0 0 0 0 0 0 0 0 -3 0 4 2 0 -1 0 0 0 0 0 0 0 0 0 0 0 0 0 0 0 0 0 0 0 0 0 0 0 0 0 0 0 0 0 0 0 0 0 0 0 0 0 0 0 0 0 0 0 -1 0 0 0 0 0 0 0 0 0 0 0 3 0 0 0 0 0 0 0 0 0 0 0 0 0 -15 0 0 -31 0 -31 0 0 0 0 0 0 0 0 0 4 0 0 0 0 0 0 0 0 0 0 0 0 0 0 0 0 0 0 0 0 0 0 0 0 0 0 0 0 -15 0 0 0 0 0 0 0 0 0 0 0 0 0 0 0 0 0 0 0 11 0 -3 0 0 0 0 0 0 0 0 0 0 0 0 0 0 0 0 0 0 0 0 0 0 0 0 0 -2 0 0 0 0 0 0 0 1 15 0 -1 11 0 -1 0 0 0 0 0 0 0 0 -1 0 0 0 0 0 0 0 0 0 0 0 0 0 0 0 0 0 0 0 0 7 0 0 0 0 0 15 0 0 0 0 0 0 0 0 0 0 0 0 0 0 0 0 0 0 5 0 0 -18 0 0 1 0 0 0 0 0 0 1 0 0 0 0 0 0 0 0 0 -4 0 15 0 0 0 0 0 0 0 -2 0 0 0 0 0 0 0 3 0 0 0 0 0 2 0 0 0 -11 0 0 1 0 0 0 0 0 0 0 0 -7 0 -15 0 0 0 0 0 0 0 0 0 0 0 0 0 0 0 0 0 0 0 0 0 0 0 0 0 0 0 0 0 0 0 0 0 0 0 0 0 0 0 0 0 0 0 0 0 0 0 0 0 0 0 0 0 0 0 0 0 0 0 0 0 0 0 0 0 0 0 0 0 
0 -36 -2 0 -36 0 -10 -36 -53 -4 0 12 0 0 0 0 -2 0 0 12 -2 -2 0 0 0 0 0 0 0 0 -5 2 -10 0 0 0 2 0 0 0 0 0 0 0 0 0 0 0 0 0 0 -10 0 0 0 0 0 -7 0 0 0 0 0 0 0 0 0 0 1 0 0 0 0 0 -4 0 -10 0 0 0 0 0 0 0 0 0 0 2 0 -65 0 0 0 0 0 0 0 0 -5 0 0 0 0 0 -10 0 0 0 0 0 0 0 0 0 0 0 0 0 0 0 0 0 -1 0 0 0 0 0 0 0 0 0 -34 0 0 0 0 0 0 0 0 0 0 0 0 0 0 0 0 0 0 0 0 0 0 0 29 0 0 0 0 0 0 0 0 0 0 0 0 0 0 0 -65 0 0 0 0 -65 0 0 0 0 0 0 0 0 0 0 0 -2 0 0 0 0 0 -5 0 -1 0 0 0 0 0 0 0 0 0 0 0 0 0 0 0 0 0 0 0 0 0 0 4 0 0 0 0 0 0 0 0 0 0 0 0 -10 0 0 0 0 0 0 0 0 0 0 0 0 0 0 0 0 0 0 0 0 0 0 0 0 0 0 0 0 0 0 0 -79 0 0 0 0 0 0 0 0 0 0 0 0 0 0 0 0 0 0 0 0 0 0 0 0 0 0 0 0 0 0 0 0 0 0 0 0 0 0 0 -2 0 0 0 0 0 0 0 0 0 0 0 0 0 0 0 -2 0 0 0 0 0 0 0 0 0 0 0 0 0 0 0 0 0 0 0 0 0 0 0 0 0 0 0 0 0 0 0 0 0 0 0 0 0 0 0 0 0 0 0 0 0 7 0 0 0 5 0 0 0 -10 0 0 0 1 0 0 0 2 0 0 0 0 0 -4 0 0 0 -65 0 0 0 0 0 0 0 0 0 0 0 0 0 0 0 0 0 0 0 0 0 0 2 0 0 0 0 2 0 0 0 0 0 0 0 0 0 0 0 0 0 0 0 0 0 0 0 0 0 0 0 0 0 0 0 0 0 0 0 0 0 0 0 0 0 0 0 0 0 0 0 0 0 0 0 0 0 0 0 0 0 0 0 0 0 0 0 0 0 0 0 0 0 0 0 0 0 0 0 0 0 0 0 0 0 0 0 
-1 -44 1 -1 0 -1 0 -5 -1 0 1 0 0 -1 -1 0 0 0 1 0 0 -2 -1 0 0 0 0 0 10 0 0 -45 -9 10 0 0 3 0 0 0 0 0 5 0 0 0 0 0 0 0 0 0 0 0 0 0 0 -1 0 0 -54 0 1 0 0 0 0 0 0 0 0 0 0 0 0 0 -9 0 0 0 0 0 0 0 0 0 0 0 0 0 0 0 0 0 0 0 0 31 0 0 0 0 0 0 0 0 0 0 0 0 0 0 0 0 -1 0 0 0 0 0 0 0 0 0 0 0 0 0 0 0 -1 0 0 0 0 0 0 0 0 0 0 0 -31 0 0 0 0 0 0 0 0 0 0 0 0 0 0 0 0 0 0 0 0 0 0 0 0 0 0 0 0 0 0 0 0 0 0 0 0 0 0 0 0 0 0 -31 0 0 0 -3 0 0 0 0 0 0 0 0 0 0 0 0 0 0 0 0 0 0 0 0 0 0 0 0 0 0 0 0 0 0 0 0 0 0 0 0 1 0 0 0 0 0 0 0 0 0 0 -31 0 0 0 0 0 0 0 0 0 0 0 0 0 0 0 0 0 1 0 0 0 0 0 0 0 0 0 0 0 0 0 5 0 0 0 0 0 0 0 0 0 0 -1 0 0 0 0 0 0 0 0 0 0 0 0 0 0 0 0 0 0 0 0 0 0 0 0 0 0 0 0 5 0 0 1 0 1 0 0 0 0 0 0 0 0 0 0 0 0 0 0 0 0 0 0 0 0 0 0 0 0 0 0 0 0 0 0 0 0 0 0 0 0 0 0 0 0 0 0 0 0 0 0 0 0 0 0 0 -5 1 0 0 0 0 0 0 1 -9 0 0 0 0 0 0 0 3 0 0 0 0 0 0 0 0 0 0 31 0 0 0 0 0 0 0 0 0 0 0 0 0 0 1 0 0 0 0 0 0 0 -5 -1 -1 0 0 0 0 0 0 0 0 0 0 0 0 0 0 0 0 0 0 0 0 0 0 0 0 0 0 0 0 0 0 0 0 0 0 0 0 0 0 0 0 0 0 0 0 0 0 0 0 0 0 0 0 0 0 0 0 0 0 0 0 0 0 0 0 0 0 0 0 0 0 0 0 0 0 0 0 0 0 0 0 0 
0 -26 -26 -17 0 0 0 0 0 0 0 0 0 0 0 0 0 0 0 0 0 0 0 0 0 0 0 0 0 0 0 0 0 0 0 0 0 0 0 0 0 0 0 0 0 0 0 0 0 0 0 0 0 0 0 0 0 0 0 0 0 0 0 0 0 0 0 0 0 0 0 0 0 0 0 0 0 0 0 0 0 0 0 0 0 0 0 0 0 0 0 0 0 0 0 0 0 0 0 0 0 0 0 0 0 0 0 0 0 0 0 0 0 0 0 0 0 0 0 0 0 0 0 0 0 0 0 0 0 0 0 0 0 0 0 0 0 0 0 0 0 0 0 0 0 0 0 0 0 0 0 0 0 0 0 0 0 0 0 0 0 0 0 0 0 0 0 0 0 0 0 0 0 0 0 0 0 0 0 0 0 0 0 0 0 0 0 0 0 0 0 0 0 0 0 0 0 0 0 0 0 0 0 0 0 0 0 0 0 0 0 0 0 0 0 0 0 0 0 0 0 0 0 0 0 0 0 0 0 0 0 0 0 0 0 0 0 0 0 0 0 0 0 0 0 0 0 0 0 0 0 0 0 0 0 0 0 0 0 0 0 0 0 0 0 0 0 0 0 0 0 0 0 0 0 0 0 0 0 0 0 0 0 0 0 0 0 0 0 0 0 0 0 0 0 0 0 0 0 0 0 0 0 0 0 0 0 0 0 0 0 0 0 0 0 0 0 0 0 0 0 0 0 0 0 0 0 0 0 0 0 0 0 0 0 0 0 0 0 0 0 0 0 0 0 0 0 17 0 0 0 0 0 0 0 0 0 0 0 0 0 0 0 0 0 0 0 0 0 0 0 0 0 0 0 0 0 0 0 0 0 0 0 0 0 0 0 0 0 0 0 0 0 0 0 0 0 0 0 0 0 0 0 0 0 0 0 0 0 0 0 0 0 0 0 0 0 0 0 0 0 0 0 0 0 0 0 0 0 0 0 -17 0 0 0 0 0 0 0 0 0 0 0 0 0 0 0 0 0 0 0 0 0 0 0 0 0 0 0 0 0 0 0 0 0 0 0 0 0 0 0 0 0 0 0 0 0 0 0 0 0 0 0 0 0 0 0 0 0 0 0 0 0 0 0 0 0 0 0 0 0 
-5 -21 -12 -25 0 -1 0 9 -64 0 -1 -54 0 -9 -2 -16 0 -4 -1 12 0 -1 0 0 0 0 0 -4 0 -8 -1 -5 0 0 0 0 0 0 0 -19 0 0 0 -1 0 0 0 0 0 -1 -5 0 0 0 0 0 0 7 0 0 0 -6 -1 0 0 0 0 -3 -8 0 0 0 0 0 0 0 0 0 0 0 0 0 0 0 0 0 0 -3 0 0 0 0 0 0 -6 0 0 0 -1 0 -6 5 0 -5 0 0 0 0 0 0 4 0 -9 0 -2 0 0 24 0 0 -3 0 0 0 0 -6 -66 0 0 -32 0 -1 9 2 0 0 0 0 0 0 0 0 0 3 0 0 0 0 0 0 0 0 0 0 0 0 0 0 0 24 -2 0 0 0 0 0 0 0 0 0 0 0 0 0 0 0 0 0 0 0 0 0 0 0 0 0 0 0 0 0 0 0 0 0 0 0 0 0 0 0 0 0 0 0 0 0 0 0 0 -2 0 0 0 0 0 0 -1 0 0 0 0 5 0 0 0 0 0 0 0 0 0 0 0 0 0 0 0 0 0 0 0 5 0 0 -2 -3 0 0 0 0 0 0 0 0 0 -1 1 0 0 0 0 0 0 0 0 0 0 -10 0 0 0 0 0 0 0 0 0 0 0 0 0 5 0 0 0 0 0 0 0 0 0 0 0 9 0 0 0 -2 0 -32 0 0 12 0 0 0 0 0 0 0 0 0 -1 0 0 0 0 0 0 0 0 0 0 0 0 -2 0 0 0 0 0 -2 0 0 0 0 0 0 0 0 0 0 0 0 0 0 0 0 0 0 0 0 3 0 0 0 0 0 0 0 0 0 0 12 0 -9 0 -7 0 0 3 0 -4 0 0 0 0 0 0 0 -24 0 0 0 0 0 -6 -3 0 0 0 0 0 0 0 0 0 -5 3 0 0 0 -1 0 0 0 0 0 0 0 -5 -9 0 2 -25 0 0 0 1 0 0 -3 0 3 0 2 0 0 0 0 0 0 0 -3 0 0 0 -12 0 0 0 0 0 0 0 0 0 0 0 0 0 0 0 0 0 0 0 0 0 0 0 0 0 0 0 0 0 0 0 0 0 0 0 0 0 0 0 0 0 0 0 0 0 0 0 0 0 0 0 0 0 0 0 0 0 0 0 0 0 0 0 
#OUTPUT END
Model has been successfully processed
